p tw 30 57
e 0 5
e 0 8
e 0 11
e 1 2
e 1 10
e 1 13
e 1 22
e 1 23
e 1 25
e 1 26
e 2 5
e 2 10
e 2 22
e 2 27
e 3 9
e 3 16
e 3 20
e 4 13
e 4 19
e 4 20
e 4 29
e 5 8
e 5 19
e 5 20
e 5 24
e 5 27
e 6 14
e 6 21
e 7 10
e 7 19
e 7 24
e 7 28
e 8 11
e 8 15
e 9 23
e 9 26
e 10 12
e 10 23
e 12 21
e 12 28
e 13 16
e 13 17
e 13 19
e 13 22
e 14 24
e 14 26
e 15 29
e 16 20
e 17 22
e 18 20
e 19 22
e 20 21
e 20 26
e 23 25
e 24 27
e 24 29
e 26 27
